\ SCIP STATISTICS
\   Problem name     : SetCover-100-100
\   Variables        : 100 (100 binary, 0 integer, 0 implicit integer, 0 continuous)
\   Constraints      : 100
Minimize
 Obj: +55 x0 +25 x1 +92 x2 +37 x3 +91 x4 +12 x5 +57 x6 +68 x7 +54 x8 +81 x9 +37 x10 +13 x11 +59 x12 +38 x13
      +30 x14 +34 x15 +28 x16 +39 x17 +39 x18 +97 x19 +5 x20 +46 x21 +98 x22 +38 x23 +62 x24 +28 x25 +23 x26
      +80 x27 +28 x28 +44 x29 +59 x30 +35 x31 +40 x32 +16 x33 +17 x34 +58 x35 +91 x36 +68 x37 +39 x38
      +86 x39 +25 x40 +76 x41 +93 x42 +14 x43 +48 x44 +17 x45 +64 x46 +98 x47 +55 x48 +33 x49 +72 x50
      +17 x51 +63 x52 +25 x53 +4 x54 +90 x55 +77 x56 +37 x57 +47 x58 +56 x59 +30 x60 +21 x61 +42 x62 +72 x63
      +92 x64 +65 x65 +98 x66 +7 x67 +84 x68 +38 x69 +70 x70 +41 x71 +51 x72 +36 x73 +94 x74 +85 x75 +81 x76
      +22 x77 +38 x78 +63 x79 +75 x80 +11 x81 +60 x82 +82 x83 +78 x84 +42 x85 +88 x86 +93 x87 +81 x88
      +22 x89 +25 x90 +88 x91 +47 x92 +7 x93 +73 x94 +93 x95 +56 x96 +55 x97 +39 x98 +95 x99
Subject to
 c0: +1 x2 +1 x20 +1 x29 +1 x51 +1 x53 +1 x71 +1 x75 +1 x79 >= +1
 c1: +1 x3 +1 x15 +1 x41 +1 x78 +1 x91 +1 x98 >= +1
 c2: +1 x3 +1 x10 +1 x18 +1 x37 +1 x41 +1 x58 +1 x61 +1 x93 +1 x98 >= +1
 c3: +1 x0 +1 x19 +1 x25 +1 x26 +1 x34 +1 x40 +1 x48 +1 x58 +1 x76 >= +1
 c4: +1 x1 +1 x15 +1 x16 +1 x21 +1 x46 +1 x53 +1 x54 +1 x77 +1 x83 >= +1
 c5: +1 x3 +1 x12 +1 x19 +1 x24 +1 x31 +1 x45 +1 x69 +1 x79 +1 x96 >= +1
 c6: +1 x0 +1 x16 +1 x18 +1 x19 +1 x70 >= +1
 c7: +1 x8 +1 x36 +1 x42 +1 x53 +1 x73 +1 x86 >= +1
 c8: +1 x6 +1 x20 +1 x25 +1 x32 +1 x43 +1 x45 +1 x59 +1 x80 +1 x87 >= +1
 c9: +1 x9 +1 x12 +1 x14 +1 x29 +1 x31 +1 x33 +1 x56 +1 x66 +1 x67 +1 x70 +1 x73 +1 x78 +1 x82 +1 x86
  +1 x88 +1 x99 >= +1
 c10: +1 x7 +1 x25 +1 x29 +1 x30 +1 x32 +1 x35 +1 x60 +1 x74 +1 x83 +1 x99 >= +1
 c11: +1 x2 +1 x12 +1 x18 +1 x26 +1 x43 +1 x47 +1 x53 +1 x71 +1 x76 +1 x83 +1 x84 +1 x98 >= +1
 c12: +1 x4 +1 x31 +1 x32 +1 x57 +1 x71 +1 x84 +1 x86 +1 x93 >= +1
 c13: +1 x2 +1 x20 +1 x23 +1 x26 +1 x36 +1 x40 +1 x46 +1 x55 +1 x64 +1 x83 +1 x89 >= +1
 c14: +1 x1 +1 x43 +1 x46 +1 x82 +1 x91 +1 x94 >= +1
 c15: +1 x2 +1 x20 +1 x37 +1 x60 +1 x68 +1 x69 +1 x73 +1 x82 +1 x90 +1 x94 +1 x96 >= +1
 c16: +1 x5 +1 x19 +1 x23 +1 x36 +1 x39 +1 x52 +1 x62 +1 x68 >= +1
 c17: +1 x4 +1 x16 +1 x26 +1 x35 +1 x36 +1 x42 +1 x59 +1 x72 +1 x78 +1 x96 >= +1
 c18: +1 x6 +1 x17 +1 x18 +1 x19 +1 x29 +1 x31 +1 x34 +1 x37 +1 x41 +1 x52 +1 x55 +1 x58 +1 x76 +1 x85
  +1 x89 +1 x94 +1 x99 >= +1
 c19: +1 x7 +1 x14 +1 x15 +1 x16 +1 x17 +1 x19 +1 x51 +1 x58 +1 x65 +1 x68 +1 x71 +1 x89 +1 x94 >= +1
 c20: +1 x7 +1 x32 +1 x45 +1 x55 +1 x62 +1 x67 +1 x90 +1 x91 +1 x92 +1 x97 +1 x99 >= +1
 c21: +1 x7 +1 x35 +1 x42 +1 x49 +1 x52 +1 x56 +1 x75 +1 x91 +1 x95 >= +1
 c22: +1 x7 +1 x14 +1 x23 +1 x33 +1 x38 +1 x41 +1 x42 +1 x58 +1 x70 +1 x72 +1 x89 +1 x90 +1 x98 >= +1
 c23: +1 x7 +1 x20 +1 x30 +1 x40 +1 x49 +1 x51 +1 x65 +1 x80 +1 x87 +1 x91 >= +1
 c24: +1 x1 +1 x20 +1 x30 +1 x33 +1 x47 +1 x49 +1 x51 +1 x80 +1 x83 +1 x89 +1 x96 >= +1
 c25: +1 x3 +1 x14 +1 x21 +1 x52 +1 x57 +1 x62 +1 x74 +1 x85 >= +1
 c26: +1 x3 +1 x9 +1 x12 +1 x16 +1 x25 +1 x40 +1 x51 +1 x54 +1 x64 +1 x65 +1 x69 +1 x72 +1 x79 +1 x82
  +1 x91 >= +1
 c27: +1 x6 +1 x30 +1 x49 +1 x62 +1 x63 +1 x68 +1 x76 +1 x78 >= +1
 c28: +1 x4 +1 x10 +1 x24 +1 x33 +1 x42 +1 x44 +1 x46 +1 x64 +1 x68 +1 x93 >= +1
 c29: +1 x4 +1 x21 +1 x40 +1 x47 +1 x49 +1 x64 +1 x74 +1 x80 +1 x97 >= +1
 c30: +1 x0 +1 x14 +1 x24 +1 x29 +1 x35 +1 x37 +1 x44 +1 x70 +1 x77 +1 x98 >= +1
 c31: +1 x0 +1 x11 +1 x17 +1 x38 +1 x47 +1 x56 +1 x61 +1 x81 +1 x96 >= +1
 c32: +1 x7 +1 x16 +1 x17 +1 x22 +1 x27 +1 x34 +1 x43 +1 x63 +1 x85 +1 x90 +1 x92 >= +1
 c33: +1 x1 +1 x37 +1 x56 +1 x59 +1 x60 +1 x61 +1 x62 +1 x66 +1 x68 +1 x71 +1 x84 +1 x94 +1 x96 >= +1
 c34: +1 x6 +1 x9 +1 x34 +1 x43 +1 x46 >= +1
 c35: +1 x8 +1 x24 +1 x42 +1 x44 +1 x59 +1 x72 +1 x75 +1 x91 >= +1
 c36: +1 x3 +1 x14 +1 x22 +1 x40 +1 x42 +1 x46 +1 x50 +1 x53 +1 x62 +1 x66 +1 x72 +1 x74 >= +1
 c37: +1 x8 +1 x18 +1 x24 +1 x26 +1 x45 +1 x50 +1 x58 +1 x66 +1 x68 +1 x69 +1 x78 +1 x81 +1 x83 +1 x93
  >= +1
 c38: +1 x1 +1 x9 +1 x13 +1 x19 +1 x26 +1 x37 +1 x39 +1 x61 +1 x64 +1 x83 +1 x90 +1 x92 >= +1
 c39: +1 x2 +1 x21 +1 x23 +1 x31 +1 x51 +1 x63 +1 x80 +1 x83 +1 x90 +1 x91 +1 x98 >= +1
 c40: +1 x0 +1 x11 +1 x29 +1 x34 +1 x37 +1 x41 +1 x43 +1 x63 +1 x64 +1 x76 +1 x93 >= +1
 c41: +1 x1 +1 x19 +1 x42 +1 x52 +1 x58 +1 x80 >= +1
 c42: +1 x3 +1 x10 +1 x11 +1 x36 +1 x66 +1 x71 +1 x97 >= +1
 c43: +1 x8 +1 x10 +1 x17 +1 x27 +1 x54 +1 x77 +1 x99 >= +1
 c44: +1 x8 +1 x9 +1 x24 +1 x35 +1 x47 +1 x51 +1 x72 +1 x86 >= +1
 c45: +1 x7 +1 x10 +1 x13 +1 x19 +1 x20 +1 x52 +1 x53 +1 x57 +1 x99 >= +1
 c46: +1 x4 +1 x12 +1 x16 +1 x21 +1 x42 +1 x49 +1 x50 +1 x56 +1 x57 +1 x63 +1 x74 +1 x80 +1 x86 >= +1
 c47: +1 x6 +1 x14 +1 x35 +1 x43 +1 x53 +1 x56 +1 x67 +1 x70 +1 x73 +1 x86 >= +1
 c48: +1 x2 +1 x10 +1 x11 +1 x12 +1 x23 +1 x29 +1 x32 +1 x69 +1 x72 +1 x76 +1 x79 +1 x88 +1 x89 >= +1
 c49: +1 x8 +1 x18 +1 x31 +1 x67 +1 x74 +1 x77 >= +1
 c50: +1 x8 +1 x9 +1 x26 +1 x32 +1 x35 +1 x36 +1 x38 +1 x39 +1 x43 +1 x49 +1 x53 +1 x70 +1 x75 +1 x77
  +1 x87 +1 x90 +1 x94 >= +1
 c51: +1 x5 +1 x29 +1 x45 +1 x53 +1 x59 +1 x60 +1 x61 +1 x66 +1 x69 +1 x73 +1 x81 >= +1
 c52: +1 x9 +1 x20 +1 x26 +1 x34 +1 x50 +1 x59 +1 x62 +1 x64 +1 x65 +1 x99 >= +1
 c53: +1 x2 +1 x21 +1 x22 +1 x28 +1 x30 +1 x39 +1 x40 +1 x47 +1 x55 +1 x68 +1 x84 >= +1
 c54: +1 x7 +1 x12 +1 x26 +1 x59 +1 x76 +1 x86 >= +1
 c55: +1 x4 +1 x19 +1 x34 +1 x39 +1 x53 +1 x78 +1 x86 +1 x95 +1 x96 >= +1
 c56: +1 x9 +1 x21 +1 x26 +1 x28 +1 x48 +1 x51 +1 x56 +1 x64 >= +1
 c57: +1 x5 +1 x24 +1 x28 +1 x46 +1 x51 +1 x79 +1 x90 +1 x93 >= +1
 c58: +1 x3 +1 x13 +1 x15 +1 x27 +1 x30 +1 x34 +1 x38 +1 x57 +1 x58 +1 x69 +1 x75 +1 x82 +1 x86 +1 x88
  +1 x93 +1 x95 >= +1
 c59: +1 x7 +1 x12 +1 x41 +1 x45 +1 x55 +1 x72 +1 x92 >= +1
 c60: +1 x3 +1 x12 +1 x18 +1 x21 +1 x39 +1 x51 +1 x63 +1 x79 >= +1
 c61: +1 x0 +1 x21 +1 x28 +1 x34 +1 x48 +1 x62 +1 x66 +1 x75 +1 x79 +1 x97 >= +1
 c62: +1 x2 +1 x23 +1 x28 +1 x30 +1 x33 +1 x38 +1 x43 +1 x45 +1 x61 +1 x73 +1 x85 >= +1
 c63: +1 x0 +1 x20 +1 x25 +1 x27 +1 x38 +1 x46 +1 x50 +1 x61 +1 x63 +1 x64 +1 x65 +1 x73 +1 x86 +1 x96
  >= +1
 c64: +1 x4 +1 x12 +1 x27 +1 x34 +1 x39 +1 x40 +1 x52 +1 x56 +1 x57 +1 x61 +1 x73 +1 x81 +1 x87 +1 x95
  +1 x97 +1 x98 >= +1
 c65: +1 x1 +1 x14 +1 x30 +1 x50 +1 x51 +1 x60 +1 x72 +1 x73 +1 x76 +1 x82 +1 x96 >= +1
 c66: +1 x7 +1 x10 +1 x12 +1 x20 +1 x23 +1 x25 +1 x53 +1 x59 +1 x62 +1 x64 +1 x68 +1 x70 +1 x76 +1 x85
  >= +1
 c67: +1 x1 +1 x17 +1 x18 +1 x28 +1 x33 +1 x56 +1 x82 +1 x86 +1 x87 +1 x88 +1 x93 +1 x97 >= +1
 c68: +1 x5 +1 x41 +1 x44 +1 x57 +1 x72 +1 x81 +1 x82 +1 x84 +1 x98 >= +1
 c69: +1 x2 +1 x11 +1 x58 +1 x67 +1 x74 +1 x94 >= +1
 c70: +1 x1 +1 x29 +1 x48 +1 x58 +1 x64 +1 x75 >= +1
 c71: +1 x0 +1 x11 +1 x21 +1 x35 +1 x65 +1 x70 +1 x76 +1 x79 +1 x82 +1 x87 +1 x95 +1 x97 >= +1
 c72: +1 x1 +1 x26 +1 x28 +1 x33 +1 x37 +1 x38 +1 x42 +1 x44 +1 x62 +1 x69 +1 x81 +1 x82 +1 x85 +1 x89
  +1 x97 >= +1
 c73: +1 x7 +1 x38 +1 x77 +1 x78 +1 x84 +1 x86 +1 x97 >= +1
 c74: +1 x0 +1 x25 +1 x56 +1 x58 +1 x60 >= +1
 c75: +1 x1 +1 x12 +1 x47 +1 x54 +1 x66 +1 x83 +1 x96 >= +1
 c76: +1 x8 +1 x13 +1 x33 +1 x50 +1 x59 +1 x69 +1 x71 >= +1
 c77: +1 x0 +1 x24 +1 x32 +1 x34 +1 x36 +1 x38 +1 x45 +1 x50 +1 x57 +1 x58 +1 x90 >= +1
 c78: +1 x3 +1 x10 +1 x11 +1 x17 +1 x28 +1 x37 +1 x38 +1 x45 +1 x79 +1 x92 +1 x95 >= +1
 c79: +1 x4 +1 x9 +1 x11 +1 x15 +1 x17 +1 x18 +1 x24 +1 x28 +1 x44 +1 x47 +1 x52 +1 x66 +1 x68 +1 x69
  +1 x75 +1 x96 >= +1
 c80: +1 x4 +1 x10 +1 x13 +1 x15 +1 x21 +1 x31 +1 x40 +1 x44 +1 x48 +1 x53 +1 x68 +1 x74 +1 x78 +1 x81
  +1 x84 +1 x87 +1 x95 >= +1
 c81: +1 x0 +1 x26 +1 x39 +1 x42 +1 x61 +1 x63 +1 x72 +1 x76 +1 x90 >= +1
 c82: +1 x5 +1 x20 +1 x21 +1 x29 +1 x31 +1 x35 +1 x53 +1 x61 +1 x69 +1 x71 +1 x76 +1 x84 +1 x92 >= +1
 c83: +1 x1 +1 x10 +1 x15 +1 x21 +1 x27 +1 x41 +1 x57 +1 x77 +1 x86 >= +1
 c84: +1 x1 +1 x11 +1 x15 +1 x26 +1 x36 +1 x41 +1 x42 +1 x77 +1 x83 +1 x84 +1 x99 >= +1
 c85: +1 x2 +1 x24 +1 x30 +1 x34 +1 x36 +1 x46 +1 x59 +1 x78 >= +1
 c86: +1 x6 +1 x11 +1 x12 +1 x15 +1 x21 +1 x34 +1 x37 +1 x39 +1 x50 +1 x58 >= +1
 c87: +1 x6 +1 x35 +1 x43 +1 x50 +1 x69 +1 x94 >= +1
 c88: +1 x7 +1 x13 +1 x15 +1 x16 +1 x44 +1 x60 +1 x67 +1 x80 +1 x85 +1 x95 >= +1
 c89: +1 x8 +1 x10 +1 x26 +1 x30 +1 x50 +1 x51 +1 x53 +1 x81 +1 x85 +1 x86 >= +1
 c90: +1 x4 +1 x17 +1 x23 +1 x43 +1 x59 +1 x62 +1 x67 +1 x91 +1 x94 >= +1
 c91: +1 x9 +1 x21 +1 x43 +1 x51 +1 x63 +1 x65 +1 x82 +1 x92 +1 x98 >= +1
 c92: +1 x0 +1 x9 +1 x25 +1 x36 +1 x46 +1 x48 +1 x52 +1 x53 +1 x66 +1 x88 +1 x95 >= +1
 c93: +1 x5 +1 x15 +1 x17 +1 x25 +1 x30 +1 x44 +1 x45 +1 x46 +1 x47 +1 x53 +1 x84 >= +1
 c94: +1 x4 +1 x24 +1 x42 +1 x48 +1 x69 +1 x90 +1 x98 >= +1
 c95: +1 x5 +1 x11 +1 x17 +1 x30 +1 x33 +1 x36 +1 x47 +1 x59 +1 x60 +1 x90 >= +1
 c96: +1 x8 +1 x19 +1 x31 +1 x49 +1 x53 +1 x62 +1 x89 >= +1
 c97: +1 x6 +1 x16 +1 x39 +1 x47 +1 x61 +1 x73 +1 x80 +1 x92 +1 x95 >= +1
 c98: +1 x0 +1 x11 +1 x24 +1 x26 +1 x29 +1 x68 +1 x89 +1 x92 +1 x94 >= +1
 c99: +1 x1 +1 x9 +1 x10 +1 x28 +1 x32 +1 x38 +1 x40 +1 x69 +1 x70 +1 x74 +1 x77 +1 x82 +1 x97 >= +1
Bounds
 0 <= x0 <= 1
 0 <= x1 <= 1
 0 <= x2 <= 1
 0 <= x3 <= 1
 0 <= x4 <= 1
 0 <= x5 <= 1
 0 <= x6 <= 1
 0 <= x7 <= 1
 0 <= x8 <= 1
 0 <= x9 <= 1
 0 <= x10 <= 1
 0 <= x11 <= 1
 0 <= x12 <= 1
 0 <= x13 <= 1
 0 <= x14 <= 1
 0 <= x15 <= 1
 0 <= x16 <= 1
 0 <= x17 <= 1
 0 <= x18 <= 1
 0 <= x19 <= 1
 0 <= x20 <= 1
 0 <= x21 <= 1
 0 <= x22 <= 1
 0 <= x23 <= 1
 0 <= x24 <= 1
 0 <= x25 <= 1
 0 <= x26 <= 1
 0 <= x27 <= 1
 0 <= x28 <= 1
 0 <= x29 <= 1
 0 <= x30 <= 1
 0 <= x31 <= 1
 0 <= x32 <= 1
 0 <= x33 <= 1
 0 <= x34 <= 1
 0 <= x35 <= 1
 0 <= x36 <= 1
 0 <= x37 <= 1
 0 <= x38 <= 1
 0 <= x39 <= 1
 0 <= x40 <= 1
 0 <= x41 <= 1
 0 <= x42 <= 1
 0 <= x43 <= 1
 0 <= x44 <= 1
 0 <= x45 <= 1
 0 <= x46 <= 1
 0 <= x47 <= 1
 0 <= x48 <= 1
 0 <= x49 <= 1
 0 <= x50 <= 1
 0 <= x51 <= 1
 0 <= x52 <= 1
 0 <= x53 <= 1
 0 <= x54 <= 1
 0 <= x55 <= 1
 0 <= x56 <= 1
 0 <= x57 <= 1
 0 <= x58 <= 1
 0 <= x59 <= 1
 0 <= x60 <= 1
 0 <= x61 <= 1
 0 <= x62 <= 1
 0 <= x63 <= 1
 0 <= x64 <= 1
 0 <= x65 <= 1
 0 <= x66 <= 1
 0 <= x67 <= 1
 0 <= x68 <= 1
 0 <= x69 <= 1
 0 <= x70 <= 1
 0 <= x71 <= 1
 0 <= x72 <= 1
 0 <= x73 <= 1
 0 <= x74 <= 1
 0 <= x75 <= 1
 0 <= x76 <= 1
 0 <= x77 <= 1
 0 <= x78 <= 1
 0 <= x79 <= 1
 0 <= x80 <= 1
 0 <= x81 <= 1
 0 <= x82 <= 1
 0 <= x83 <= 1
 0 <= x84 <= 1
 0 <= x85 <= 1
 0 <= x86 <= 1
 0 <= x87 <= 1
 0 <= x88 <= 1
 0 <= x89 <= 1
 0 <= x90 <= 1
 0 <= x91 <= 1
 0 <= x92 <= 1
 0 <= x93 <= 1
 0 <= x94 <= 1
 0 <= x95 <= 1
 0 <= x96 <= 1
 0 <= x97 <= 1
 0 <= x98 <= 1
 0 <= x99 <= 1
Binaries
 x0 x1 x2 x3 x4 x5 x6 x7 x8 x9 x10 x11 x12 x13 x14 x15 x16 x17 x18 x19 x20 x21 x22 x23 x24 x25 x26 x27
 x28 x29 x30 x31 x32 x33 x34 x35 x36 x37 x38 x39 x40 x41 x42 x43 x44 x45 x46 x47 x48 x49 x50 x51 x52 x53
 x54 x55 x56 x57 x58 x59 x60 x61 x62 x63 x64 x65 x66 x67 x68 x69 x70 x71 x72 x73 x74 x75 x76 x77 x78 x79
 x80 x81 x82 x83 x84 x85 x86 x87 x88 x89 x90 x91 x92 x93 x94 x95 x96 x97 x98 x99
End
